(set-info :source |printed by MathSAT|)
(declare-fun call_mesi.ite21 () Int)
(declare-fun param_etat_me2 () Bool)
(declare-fun call_mesi.ite.next () Int)
(declare-fun call_Sofar.Sofar () Bool)
(declare-fun call_mesi.ite10 () Int)
(declare-fun call_mesi.garde_me2.next () Bool)
(declare-fun call_mesi.ite32.next () Int)
(declare-fun call_mesi.ite22 () Int)
(declare-fun call_mesi.flby3 () Int)
(declare-fun call_mesi.ite6.next () Int)
(declare-fun call_mesi.ite13 () Int)
(declare-fun call_mesi.ite20.next () Int)
(declare-fun call_mesi.flby2.next () Int)
(declare-fun modified_me.next () Int)
(declare-fun call_mesi.ite3.next () Int)
(declare-fun call_mesi.ite19 () Int)
(declare-fun call_mesi.ite3 () Int)
(declare-fun call_mesi.garde_me3.next () Bool)
(declare-fun call_excludes4.excludes () Bool)
(declare-fun call_mesi.ite25.next () Int)
(declare-fun call_mesi.ite29 () Int)
(declare-fun param_etat_me1.next () Bool)
(declare-fun call_mesi.ite18.next () Int)
(declare-fun call_mesi.invalid_me.next () Int)
(declare-fun call_mesi.ite () Int)
(declare-fun _OK_ () Bool)
(declare-fun call_mesi.exclusive_me.next () Int)
(declare-fun call_mesi.ite16 () Int)
(declare-fun call_mesi.shared_me () Int)
(declare-fun call_mesi.ite31 () Int)
(declare-fun call_mesi.modified_me.next () Int)
(declare-fun call_mesi.ite24.next () Int)
(declare-fun call_mesi.ite12.next () Int)
(declare-fun call_mesi.garde_me4.next () Bool)
(declare-fun call_mesi.ite8 () Int)
(declare-fun call_mesi.ite17.next () Int)
(declare-fun call_Sofar.flby () Bool)
(declare-fun modified_me () Int)
(declare-fun call_mesi.ite31.next () Int)
(declare-fun call_mesi.ite15.next () Int)
(declare-fun call_mesi.ite24 () Int)
(declare-fun call_mesi.flby2 () Int)
(declare-fun env.next () Bool)
(declare-fun invalid_me () Int)
(declare-fun call_mesi.ite2 () Int)
(declare-fun call_mesi.ite30.next () Int)
(declare-fun call_mesi.ite6 () Int)
(declare-fun call_mesi.ite17 () Int)
(declare-fun call_mesi.flby4 () Int)
(declare-fun call_mesi.modified_me () Int)
(declare-fun call_mesi.ite25 () Int)
(declare-fun call_mesi.ite23.next () Int)
(declare-fun call_mesi.ite14 () Int)
(declare-fun env () Bool)
(declare-fun call_mesi.ite7.next () Int)
(declare-fun call_mesi.flby.next () Int)
(declare-fun param_etat_me1 () Bool)
(declare-fun call_mesi.ite22.next () Int)
(declare-fun param_etat_me2.next () Bool)
(declare-fun call_mesi.ite8.next () Int)
(declare-fun param_etat_me4.next () Bool)
(declare-fun param_etat_me3.next () Bool)
(declare-fun call_mesi.ite27 () Int)
(declare-fun call_mesi.ite5.next () Int)
(declare-fun flby.next () Bool)
(declare-fun param_etat_me4 () Bool)
(declare-fun call_mesi.ite7 () Int)
(declare-fun call_mesi.ite21.next () Int)
(declare-fun call_mesi.ite10.next () Int)
(declare-fun call_mesi.ite16.next () Int)
(declare-fun exclusive_me () Int)
(declare-fun param_etat_me3 () Bool)
(declare-fun call_mesi.flby4.next () Int)
(declare-fun call_mesi.flby () Int)
(declare-fun exclusive_me.next () Int)
(declare-fun call_Sofar.Sofar.next () Bool)
(declare-fun call_mesi.ite32 () Int)
(declare-fun flby () Bool)
(declare-fun call_Sofar.flby.next () Bool)
(declare-fun call_mesi.ite26.next () Int)
(declare-fun call_mesi.ite14.next () Int)
(declare-fun call_mesi.shared_me.next () Int)
(declare-fun call_mesi.ite2.next () Int)
(declare-fun call_mesi.ite4.next () Int)
(declare-fun call_mesi.garde_me1.next () Bool)
(declare-fun call_mesi.ite26 () Int)
(declare-fun call_mesi.ite9.next () Int)
(declare-fun call_mesi.ite30 () Int)
(declare-fun call_mesi.ite11.next () Int)
(declare-fun call_mesi.exclusive_me () Int)
(declare-fun shared_me.next () Int)
(declare-fun call_excludes4.excludes.next () Bool)
(declare-fun _OK_.next () Bool)
(declare-fun shared_me () Int)
(declare-fun call_mesi.ite15 () Int)
(declare-fun call_mesi.invalid_me () Int)
(declare-fun call_mesi.ite19.next () Int)
(declare-fun call_mesi.ite23 () Int)
(declare-fun call_mesi.flby3.next () Int)
(declare-fun call_mesi.ite11 () Int)
(declare-fun call_mesi.ite9 () Int)
(declare-fun call_mesi.ite5 () Int)
(declare-fun call_mesi.ite18 () Int)
(declare-fun call_mesi.ite29.next () Int)
(declare-fun call_mesi.ite13.next () Int)
(declare-fun call_mesi.ite27.next () Int)
(declare-fun call_mesi.ite28.next () Int)
(declare-fun invalid_me.next () Int)
(define-fun .def_1187 () Bool (= call_Sofar.flby.next call_Sofar.Sofar.next))
(define-fun .def_1182 () Bool (and param_etat_me4.next param_etat_me3.next))
(define-fun .def_1177 () Bool (and param_etat_me1.next param_etat_me2.next))
(define-fun .def_1176 () Bool (and param_etat_me3.next param_etat_me1.next))
(define-fun .def_1178 () Bool (or .def_1176 .def_1177))
(define-fun .def_1175 () Bool (and param_etat_me4.next param_etat_me1.next))
(define-fun .def_1179 () Bool (or .def_1175 .def_1178))
(define-fun .def_1174 () Bool (and param_etat_me3.next param_etat_me2.next))
(define-fun .def_1180 () Bool (or .def_1174 .def_1179))
(define-fun .def_1173 () Bool (and param_etat_me4.next param_etat_me2.next))
(define-fun .def_1181 () Bool (or .def_1173 .def_1180))
(define-fun .def_1183 () Bool (or .def_1181 .def_1182))
(define-fun .def_1184 () Bool (not .def_1183))
(define-fun .def_1185 () Bool (= call_excludes4.excludes.next .def_1184))
(define-fun .def_1171 () Bool (= call_mesi.flby4.next call_mesi.invalid_me.next))
(define-fun .def_1169 () Bool (= call_mesi.flby3.next call_mesi.shared_me.next))
(define-fun .def_1167 () Bool (= call_mesi.flby2.next call_mesi.exclusive_me.next))
(define-fun .def_1165 () Bool (= call_mesi.flby.next call_mesi.modified_me.next))
(define-fun .def_1161 () Bool (= call_mesi.ite30.next call_mesi.ite31.next))
(define-fun .def_1162 () Bool (or param_etat_me2.next .def_1161))
(define-fun .def_1158 () Bool (= call_mesi.ite26.next call_mesi.ite31.next))
(define-fun .def_1143 () Bool (not param_etat_me2.next))
(define-fun .def_1159 () Bool (or .def_1143 .def_1158))
(define-fun .def_1155 () Bool (= call_mesi.ite22.next call_mesi.ite23.next))
(define-fun .def_1156 () Bool (or param_etat_me2.next .def_1155))
(define-fun .def_1152 () Bool (= call_mesi.ite18.next call_mesi.ite23.next))
(define-fun .def_1153 () Bool (or .def_1143 .def_1152))
(define-fun .def_1149 () Bool (= call_mesi.ite14.next call_mesi.ite15.next))
(define-fun .def_1150 () Bool (or param_etat_me2.next .def_1149))
(define-fun .def_1146 () Bool (= call_mesi.ite10.next call_mesi.ite15.next))
(define-fun .def_1147 () Bool (or .def_1143 .def_1146))
(define-fun .def_1142 () Bool (= call_mesi.ite2.next call_mesi.ite7.next))
(define-fun .def_1144 () Bool (or .def_1142 .def_1143))
(define-fun .def_1139 () Bool (= call_mesi.ite6.next call_mesi.ite7.next))
(define-fun .def_1141 () Bool (or .def_1139 param_etat_me2.next))
(define-fun .def_1145 () Bool (and .def_1141 .def_1144))
(define-fun .def_1148 () Bool (and .def_1145 .def_1147))
(define-fun .def_1151 () Bool (and .def_1148 .def_1150))
(define-fun .def_1154 () Bool (and .def_1151 .def_1153))
(define-fun .def_1157 () Bool (and .def_1154 .def_1156))
(define-fun .def_1160 () Bool (and .def_1157 .def_1159))
(define-fun .def_1163 () Bool (and .def_1160 .def_1162))
(define-fun .def_1135 () Bool (= call_mesi.ite32.next call_mesi.ite31.next))
(define-fun .def_1136 () Bool (or param_etat_me1.next .def_1135))
(define-fun .def_1131 () Bool (= call_mesi.ite25.next call_mesi.ite32.next))
(define-fun .def_1114 () Bool (not param_etat_me1.next))
(define-fun .def_1132 () Bool (or .def_1114 .def_1131))
(define-fun .def_1128 () Bool (= call_mesi.ite24.next call_mesi.ite23.next))
(define-fun .def_1129 () Bool (or param_etat_me1.next .def_1128))
(define-fun .def_1124 () Bool (= call_mesi.ite17.next call_mesi.ite24.next))
(define-fun .def_1125 () Bool (or .def_1114 .def_1124))
(define-fun .def_1121 () Bool (= call_mesi.ite16.next call_mesi.ite15.next))
(define-fun .def_1122 () Bool (or param_etat_me1.next .def_1121))
(define-fun .def_1117 () Bool (= call_mesi.ite9.next call_mesi.ite16.next))
(define-fun .def_1118 () Bool (or .def_1114 .def_1117))
(define-fun .def_1113 () Bool (= call_mesi.ite.next call_mesi.ite8.next))
(define-fun .def_1115 () Bool (or .def_1113 .def_1114))
(define-fun .def_1110 () Bool (= call_mesi.ite8.next call_mesi.ite7.next))
(define-fun .def_1112 () Bool (or .def_1110 param_etat_me1.next))
(define-fun .def_1116 () Bool (and .def_1112 .def_1115))
(define-fun .def_1119 () Bool (and .def_1116 .def_1118))
(define-fun .def_1123 () Bool (and .def_1119 .def_1122))
(define-fun .def_1126 () Bool (and .def_1123 .def_1125))
(define-fun .def_1130 () Bool (and .def_1126 .def_1129))
(define-fun .def_1133 () Bool (and .def_1130 .def_1132))
(define-fun .def_1137 () Bool (and .def_1133 .def_1136))
(define-fun .def_1107 () Bool (= env.next call_Sofar.Sofar.next))
(define-fun .def_1104 () Bool (= invalid_me.next call_mesi.invalid_me.next))
(define-fun .def_1101 () Bool (= shared_me.next call_mesi.shared_me.next))
(define-fun .def_1098 () Bool (= exclusive_me.next call_mesi.exclusive_me.next))
(define-fun .def_1095 () Bool (= modified_me.next call_mesi.modified_me.next))
(define-fun .def_1090 () Bool (= call_mesi.ite29.next call_mesi.ite30.next))
(define-fun .def_1091 () Bool (or param_etat_me3.next .def_1090))
(define-fun .def_1087 () Bool (= call_mesi.ite27.next call_mesi.ite30.next))
(define-fun .def_1069 () Bool (not param_etat_me3.next))
(define-fun .def_1088 () Bool (or .def_1069 .def_1087))
(define-fun .def_1083 () Bool (= call_mesi.ite21.next call_mesi.ite22.next))
(define-fun .def_1084 () Bool (or param_etat_me3.next .def_1083))
(define-fun .def_1080 () Bool (= call_mesi.ite19.next call_mesi.ite22.next))
(define-fun .def_1081 () Bool (or .def_1069 .def_1080))
(define-fun .def_1076 () Bool (= call_mesi.ite13.next call_mesi.ite14.next))
(define-fun .def_1077 () Bool (or param_etat_me3.next .def_1076))
(define-fun .def_1073 () Bool (= call_mesi.ite11.next call_mesi.ite14.next))
(define-fun .def_1074 () Bool (or .def_1069 .def_1073))
(define-fun .def_1068 () Bool (= call_mesi.ite3.next call_mesi.ite6.next))
(define-fun .def_1070 () Bool (or .def_1068 .def_1069))
(define-fun .def_1065 () Bool (= call_mesi.ite5.next call_mesi.ite6.next))
(define-fun .def_1067 () Bool (or .def_1065 param_etat_me3.next))
(define-fun .def_1071 () Bool (and .def_1067 .def_1070))
(define-fun .def_1075 () Bool (and .def_1071 .def_1074))
(define-fun .def_1078 () Bool (and .def_1075 .def_1077))
(define-fun .def_1082 () Bool (and .def_1078 .def_1081))
(define-fun .def_1085 () Bool (and .def_1082 .def_1084))
(define-fun .def_1089 () Bool (and .def_1085 .def_1088))
(define-fun .def_1092 () Bool (and .def_1089 .def_1091))
(define-fun .def_1061 () Bool (not env.next))
(define-fun .def_1062 () Bool (or flby.next .def_1061))
(define-fun .def_1063 () Bool (= _OK_.next .def_1062))
(define-fun .def_1093 () Bool (and .def_1063 .def_1092))
(define-fun .def_1096 () Bool (and .def_1093 .def_1095))
(define-fun .def_1099 () Bool (and .def_1096 .def_1098))
(define-fun .def_1102 () Bool (and .def_1099 .def_1101))
(define-fun .def_1105 () Bool (and .def_1102 .def_1104))
(define-fun .def_1108 () Bool (and .def_1105 .def_1107))
(define-fun .def_1138 () Bool (and .def_1108 .def_1137))
(define-fun .def_1164 () Bool (and .def_1138 .def_1163))
(define-fun .def_1166 () Bool (and .def_1164 .def_1165))
(define-fun .def_1168 () Bool (and .def_1166 .def_1167))
(define-fun .def_1170 () Bool (and .def_1168 .def_1169))
(define-fun .def_1172 () Bool (and .def_1170 .def_1171))
(define-fun .def_1186 () Bool (and .def_1172 .def_1185))
(define-fun .def_1188 () Bool (and .def_1186 .def_1187))
(define-fun .def_819 () Bool (= call_Sofar.flby call_Sofar.Sofar))
(define-fun .def_814 () Bool (and param_etat_me4 param_etat_me3))
(define-fun .def_809 () Bool (and param_etat_me1 param_etat_me2))
(define-fun .def_808 () Bool (and param_etat_me3 param_etat_me1))
(define-fun .def_810 () Bool (or .def_808 .def_809))
(define-fun .def_807 () Bool (and param_etat_me4 param_etat_me1))
(define-fun .def_811 () Bool (or .def_807 .def_810))
(define-fun .def_806 () Bool (and param_etat_me3 param_etat_me2))
(define-fun .def_812 () Bool (or .def_806 .def_811))
(define-fun .def_805 () Bool (and param_etat_me4 param_etat_me2))
(define-fun .def_813 () Bool (or .def_805 .def_812))
(define-fun .def_815 () Bool (or .def_813 .def_814))
(define-fun .def_816 () Bool (not .def_815))
(define-fun .def_817 () Bool (= call_excludes4.excludes .def_816))
(define-fun .def_803 () Bool (= call_mesi.flby4 call_mesi.invalid_me))
(define-fun .def_801 () Bool (= call_mesi.flby3 call_mesi.shared_me))
(define-fun .def_799 () Bool (= call_mesi.flby2 call_mesi.exclusive_me))
(define-fun .def_797 () Bool (= call_mesi.flby call_mesi.modified_me))
(define-fun .def_793 () Bool (= call_mesi.ite30 call_mesi.ite31))
(define-fun .def_794 () Bool (or param_etat_me2 .def_793))
(define-fun .def_790 () Bool (= call_mesi.ite31 call_mesi.ite26))
(define-fun .def_772 () Bool (not param_etat_me2))
(define-fun .def_791 () Bool (or .def_772 .def_790))
(define-fun .def_786 () Bool (= call_mesi.ite22 call_mesi.ite23))
(define-fun .def_787 () Bool (or param_etat_me2 .def_786))
(define-fun .def_783 () Bool (= call_mesi.ite23 call_mesi.ite18))
(define-fun .def_784 () Bool (or .def_772 .def_783))
(define-fun .def_779 () Bool (= call_mesi.ite14 call_mesi.ite15))
(define-fun .def_780 () Bool (or param_etat_me2 .def_779))
(define-fun .def_776 () Bool (= call_mesi.ite15 call_mesi.ite10))
(define-fun .def_777 () Bool (or .def_772 .def_776))
(define-fun .def_771 () Bool (= call_mesi.ite7 call_mesi.ite2))
(define-fun .def_773 () Bool (or .def_771 .def_772))
(define-fun .def_767 () Bool (= call_mesi.ite6 call_mesi.ite7))
(define-fun .def_769 () Bool (or .def_767 param_etat_me2))
(define-fun .def_774 () Bool (and .def_769 .def_773))
(define-fun .def_778 () Bool (and .def_774 .def_777))
(define-fun .def_781 () Bool (and .def_778 .def_780))
(define-fun .def_785 () Bool (and .def_781 .def_784))
(define-fun .def_788 () Bool (and .def_785 .def_787))
(define-fun .def_792 () Bool (and .def_788 .def_791))
(define-fun .def_795 () Bool (and .def_792 .def_794))
(define-fun .def_763 () Bool (= call_mesi.ite32 call_mesi.ite31))
(define-fun .def_764 () Bool (or param_etat_me1 .def_763))
(define-fun .def_759 () Bool (= call_mesi.ite25 call_mesi.ite32))
(define-fun .def_737 () Bool (not param_etat_me1))
(define-fun .def_760 () Bool (or .def_737 .def_759))
(define-fun .def_754 () Bool (= call_mesi.ite24 call_mesi.ite23))
(define-fun .def_755 () Bool (or param_etat_me1 .def_754))
(define-fun .def_750 () Bool (= call_mesi.ite17 call_mesi.ite24))
(define-fun .def_751 () Bool (or .def_737 .def_750))
(define-fun .def_745 () Bool (= call_mesi.ite16 call_mesi.ite15))
(define-fun .def_746 () Bool (or param_etat_me1 .def_745))
(define-fun .def_741 () Bool (= call_mesi.ite9 call_mesi.ite16))
(define-fun .def_742 () Bool (or .def_737 .def_741))
(define-fun .def_736 () Bool (= call_mesi.ite call_mesi.ite8))
(define-fun .def_738 () Bool (or .def_736 .def_737))
(define-fun .def_733 () Bool (= call_mesi.ite8 call_mesi.ite7))
(define-fun .def_735 () Bool (or .def_733 param_etat_me1))
(define-fun .def_739 () Bool (and .def_735 .def_738))
(define-fun .def_743 () Bool (and .def_739 .def_742))
(define-fun .def_747 () Bool (and .def_743 .def_746))
(define-fun .def_752 () Bool (and .def_747 .def_751))
(define-fun .def_756 () Bool (and .def_752 .def_755))
(define-fun .def_761 () Bool (and .def_756 .def_760))
(define-fun .def_765 () Bool (and .def_761 .def_764))
(define-fun .def_729 () Bool (= env call_Sofar.Sofar))
(define-fun .def_726 () Bool (= invalid_me call_mesi.invalid_me))
(define-fun .def_722 () Bool (= shared_me call_mesi.shared_me))
(define-fun .def_718 () Bool (= exclusive_me call_mesi.exclusive_me))
(define-fun .def_714 () Bool (= modified_me call_mesi.modified_me))
(define-fun .def_708 () Bool (= call_mesi.ite29 call_mesi.ite30))
(define-fun .def_709 () Bool (or param_etat_me3 .def_708))
(define-fun .def_705 () Bool (= call_mesi.ite27 call_mesi.ite30))
(define-fun .def_686 () Bool (not param_etat_me3))
(define-fun .def_706 () Bool (or .def_686 .def_705))
(define-fun .def_700 () Bool (= call_mesi.ite21 call_mesi.ite22))
(define-fun .def_701 () Bool (or param_etat_me3 .def_700))
(define-fun .def_697 () Bool (= call_mesi.ite19 call_mesi.ite22))
(define-fun .def_698 () Bool (or .def_686 .def_697))
(define-fun .def_693 () Bool (= call_mesi.ite13 call_mesi.ite14))
(define-fun .def_694 () Bool (or param_etat_me3 .def_693))
(define-fun .def_690 () Bool (= call_mesi.ite11 call_mesi.ite14))
(define-fun .def_691 () Bool (or .def_686 .def_690))
(define-fun .def_685 () Bool (= call_mesi.ite3 call_mesi.ite6))
(define-fun .def_687 () Bool (or .def_685 .def_686))
(define-fun .def_682 () Bool (= call_mesi.ite5 call_mesi.ite6))
(define-fun .def_684 () Bool (or .def_682 param_etat_me3))
(define-fun .def_688 () Bool (and .def_684 .def_687))
(define-fun .def_692 () Bool (and .def_688 .def_691))
(define-fun .def_695 () Bool (and .def_692 .def_694))
(define-fun .def_699 () Bool (and .def_695 .def_698))
(define-fun .def_702 () Bool (and .def_699 .def_701))
(define-fun .def_707 () Bool (and .def_702 .def_706))
(define-fun .def_710 () Bool (and .def_707 .def_709))
(define-fun .def_678 () Bool (not env))
(define-fun .def_679 () Bool (or flby .def_678))
(define-fun .def_680 () Bool (= _OK_ .def_679))
(define-fun .def_711 () Bool (and .def_680 .def_710))
(define-fun .def_715 () Bool (and .def_711 .def_714))
(define-fun .def_719 () Bool (and .def_715 .def_718))
(define-fun .def_723 () Bool (and .def_719 .def_722))
(define-fun .def_727 () Bool (and .def_723 .def_726))
(define-fun .def_730 () Bool (and .def_727 .def_729))
(define-fun .def_766 () Bool (and .def_730 .def_765))
(define-fun .def_796 () Bool (and .def_766 .def_795))
(define-fun .def_798 () Bool (and .def_796 .def_797))
(define-fun .def_800 () Bool (and .def_798 .def_799))
(define-fun .def_802 () Bool (and .def_800 .def_801))
(define-fun .def_804 () Bool (and .def_802 .def_803))
(define-fun .def_818 () Bool (and .def_804 .def_817))
(define-fun .def_820 () Bool (and .def_818 .def_819))
(define-fun .def_1189 () Bool (and .def_820 .def_1188))
(define-fun .def_1055 () Bool (or call_Sofar.Sofar call_excludes4.excludes.next))
(define-fun .def_1057 () Bool (= .def_1055 call_Sofar.flby.next))
(define-fun .def_1052 () Bool (= call_mesi.ite32.next call_mesi.flby4.next))
(define-fun .def_1048 () Bool (= call_mesi.ite24.next call_mesi.flby3.next))
(define-fun .def_1044 () Bool (= call_mesi.ite16.next call_mesi.flby2.next))
(define-fun .def_1040 () Bool (= call_mesi.ite8.next call_mesi.flby.next))
(define-fun .def_1008 () Bool (<= 1 call_mesi.invalid_me))
(define-fun .def_1035 () Bool (= call_mesi.garde_me4.next .def_1008))
(define-fun .def_1032 () Bool (= call_mesi.ite20.next 0))
(define-fun .def_942 () Bool (not call_mesi.garde_me4.next))
(define-fun .def_1033 () Bool (or .def_942 .def_1032))
(define-fun .def_1029 () Bool (= call_mesi.ite4.next 0))
(define-fun .def_1030 () Bool (or .def_942 .def_1029))
(define-fun .def_1027 () Bool (= call_mesi.ite12.next 1))
(define-fun .def_1028 () Bool (or .def_942 .def_1027))
(define-fun .def_1031 () Bool (and .def_1028 .def_1030))
(define-fun .def_1034 () Bool (and .def_1031 .def_1033))
(define-fun .def_1036 () Bool (and .def_1034 .def_1035))
(define-fun .def_1023 () Bool (<= 1 call_mesi.shared_me))
(define-fun .def_1024 () Bool (= call_mesi.garde_me3.next .def_1023))
(define-fun .def_1020 () Bool (= call_mesi.ite19.next 0))
(define-fun .def_929 () Bool (not call_mesi.garde_me3.next))
(define-fun .def_1021 () Bool (or .def_929 .def_1020))
(define-fun .def_1017 () Bool (= call_mesi.ite3.next 0))
(define-fun .def_1018 () Bool (or .def_929 .def_1017))
(define-fun .def_1015 () Bool (= call_mesi.ite11.next 1))
(define-fun .def_1016 () Bool (or .def_929 .def_1015))
(define-fun .def_1019 () Bool (and .def_1016 .def_1018))
(define-fun .def_1022 () Bool (and .def_1019 .def_1021))
(define-fun .def_1025 () Bool (and .def_1022 .def_1024))
(define-fun .def_1012 () Bool (<= 1 call_mesi.exclusive_me))
(define-fun .def_1013 () Bool (= call_mesi.garde_me2.next .def_1012))
(define-fun .def_1009 () Bool (= call_mesi.garde_me1.next .def_1008))
(define-fun .def_1005 () Bool (= call_mesi.ite.next 0))
(define-fun .def_915 () Bool (not call_mesi.garde_me1.next))
(define-fun .def_1006 () Bool (or .def_915 .def_1005))
(define-fun .def_1003 () Bool (= call_mesi.ite9.next 0))
(define-fun .def_1004 () Bool (or .def_915 .def_1003))
(define-fun .def_1007 () Bool (and .def_1004 .def_1006))
(define-fun .def_1010 () Bool (and .def_1007 .def_1009))
(define-fun .def_999 () Bool (= call_mesi.invalid_me call_mesi.ite28.next))
(define-fun .def_1000 () Bool (or call_mesi.garde_me4.next .def_999))
(define-fun .def_996 () Bool (= call_mesi.invalid_me call_mesi.ite27.next))
(define-fun .def_997 () Bool (or call_mesi.garde_me3.next .def_996))
(define-fun .def_991 () Bool (= call_mesi.invalid_me call_mesi.ite26.next))
(define-fun .def_994 () Bool (or call_mesi.garde_me2.next .def_991))
(define-fun .def_886 () Bool (not call_mesi.garde_me2.next))
(define-fun .def_992 () Bool (or .def_886 .def_991))
(define-fun .def_985 () Int (* (- 1) call_mesi.ite25.next))
(define-fun .def_986 () Int (+ call_mesi.invalid_me .def_985))
(define-fun .def_987 () Bool (= .def_986 1))
(define-fun .def_988 () Bool (or .def_915 .def_987))
(define-fun .def_983 () Bool (= call_mesi.invalid_me call_mesi.ite25.next))
(define-fun .def_984 () Bool (or call_mesi.garde_me1.next .def_983))
(define-fun .def_989 () Bool (and .def_984 .def_988))
(define-fun .def_993 () Bool (and .def_989 .def_992))
(define-fun .def_995 () Bool (and .def_993 .def_994))
(define-fun .def_998 () Bool (and .def_995 .def_997))
(define-fun .def_1001 () Bool (and .def_998 .def_1000))
(define-fun .def_978 () Bool (= call_mesi.shared_me call_mesi.ite20.next))
(define-fun .def_979 () Bool (or call_mesi.garde_me4.next .def_978))
(define-fun .def_975 () Bool (= call_mesi.shared_me call_mesi.ite19.next))
(define-fun .def_976 () Bool (or call_mesi.garde_me3.next .def_975))
(define-fun .def_967 () Bool (= call_mesi.shared_me call_mesi.ite18.next))
(define-fun .def_972 () Bool (or call_mesi.garde_me2.next .def_967))
(define-fun .def_969 () Bool (= call_mesi.shared_me call_mesi.ite17.next))
(define-fun .def_970 () Bool (or call_mesi.garde_me1.next .def_969))
(define-fun .def_968 () Bool (or .def_886 .def_967))
(define-fun .def_971 () Bool (and .def_968 .def_970))
(define-fun .def_973 () Bool (and .def_971 .def_972))
(define-fun .def_977 () Bool (and .def_973 .def_976))
(define-fun .def_980 () Bool (and .def_977 .def_979))
(define-fun .def_962 () Bool (= call_mesi.exclusive_me call_mesi.ite12.next))
(define-fun .def_963 () Bool (or call_mesi.garde_me4.next .def_962))
(define-fun .def_959 () Bool (= call_mesi.exclusive_me call_mesi.ite11.next))
(define-fun .def_960 () Bool (or call_mesi.garde_me3.next .def_959))
(define-fun .def_955 () Bool (= call_mesi.exclusive_me call_mesi.ite10.next))
(define-fun .def_956 () Bool (or call_mesi.garde_me2.next .def_955))
(define-fun .def_952 () Bool (= call_mesi.exclusive_me call_mesi.ite9.next))
(define-fun .def_953 () Bool (or call_mesi.garde_me1.next .def_952))
(define-fun .def_947 () Int (* (- 1) call_mesi.ite10.next))
(define-fun .def_948 () Int (+ call_mesi.exclusive_me .def_947))
(define-fun .def_949 () Bool (= .def_948 1))
(define-fun .def_950 () Bool (or .def_886 .def_949))
(define-fun .def_954 () Bool (and .def_950 .def_953))
(define-fun .def_957 () Bool (and .def_954 .def_956))
(define-fun .def_961 () Bool (and .def_957 .def_960))
(define-fun .def_964 () Bool (and .def_961 .def_963))
(define-fun .def_932 () Int (* (- 1) call_mesi.ite28.next))
(define-fun .def_937 () Int (+ call_mesi.invalid_me .def_932))
(define-fun .def_938 () Int (+ call_mesi.shared_me .def_937))
(define-fun .def_939 () Int (+ call_mesi.exclusive_me .def_938))
(define-fun .def_940 () Int (+ call_mesi.modified_me .def_939))
(define-fun .def_941 () Bool (= .def_940 1))
(define-fun .def_943 () Bool (or .def_941 .def_942))
(define-fun .def_919 () Int (* (- 1) call_mesi.ite27.next))
(define-fun .def_924 () Int (+ call_mesi.invalid_me .def_919))
(define-fun .def_925 () Int (+ call_mesi.shared_me .def_924))
(define-fun .def_926 () Int (+ call_mesi.exclusive_me .def_925))
(define-fun .def_927 () Int (+ call_mesi.modified_me .def_926))
(define-fun .def_928 () Bool (= .def_927 1))
(define-fun .def_930 () Bool (or .def_928 .def_929))
(define-fun .def_906 () Int (* (- 1) call_mesi.ite17.next))
(define-fun .def_911 () Int (+ call_mesi.shared_me .def_906))
(define-fun .def_908 () Int (* (- 1) call_mesi.exclusive_me))
(define-fun .def_912 () Int (+ .def_908 .def_911))
(define-fun .def_913 () Int (+ call_mesi.modified_me .def_912))
(define-fun .def_914 () Bool (= .def_913 1))
(define-fun .def_916 () Bool (or .def_914 .def_915))
(define-fun .def_901 () Bool (= call_mesi.modified_me call_mesi.ite4.next))
(define-fun .def_903 () Bool (or .def_901 call_mesi.garde_me4.next))
(define-fun .def_897 () Bool (= call_mesi.modified_me call_mesi.ite3.next))
(define-fun .def_899 () Bool (or .def_897 call_mesi.garde_me3.next))
(define-fun .def_893 () Bool (= call_mesi.modified_me call_mesi.ite2.next))
(define-fun .def_894 () Bool (or call_mesi.garde_me2.next .def_893))
(define-fun .def_889 () Bool (= call_mesi.modified_me call_mesi.ite.next))
(define-fun .def_891 () Bool (or .def_889 call_mesi.garde_me1.next))
(define-fun .def_882 () Int (* (- 1) call_mesi.ite2.next))
(define-fun .def_883 () Int (+ call_mesi.modified_me .def_882))
(define-fun .def_884 () Bool (= .def_883 1))
(define-fun .def_887 () Bool (or .def_884 .def_886))
(define-fun .def_892 () Bool (and .def_887 .def_891))
(define-fun .def_895 () Bool (and .def_892 .def_894))
(define-fun .def_900 () Bool (and .def_895 .def_899))
(define-fun .def_904 () Bool (and .def_900 .def_903))
(define-fun .def_917 () Bool (and .def_904 .def_916))
(define-fun .def_931 () Bool (and .def_917 .def_930))
(define-fun .def_944 () Bool (and .def_931 .def_943))
(define-fun .def_877 () Bool (= call_mesi.invalid_me call_mesi.ite29.next))
(define-fun .def_878 () Bool (or param_etat_me4.next .def_877))
(define-fun .def_874 () Bool (= call_mesi.ite28.next call_mesi.ite29.next))
(define-fun .def_853 () Bool (not param_etat_me4.next))
(define-fun .def_875 () Bool (or .def_853 .def_874))
(define-fun .def_869 () Bool (= call_mesi.shared_me call_mesi.ite21.next))
(define-fun .def_870 () Bool (or param_etat_me4.next .def_869))
(define-fun .def_866 () Bool (= call_mesi.ite20.next call_mesi.ite21.next))
(define-fun .def_867 () Bool (or .def_853 .def_866))
(define-fun .def_861 () Bool (= call_mesi.exclusive_me call_mesi.ite13.next))
(define-fun .def_862 () Bool (or param_etat_me4.next .def_861))
(define-fun .def_858 () Bool (= call_mesi.ite12.next call_mesi.ite13.next))
(define-fun .def_859 () Bool (or .def_853 .def_858))
(define-fun .def_852 () Bool (= call_mesi.ite5.next call_mesi.ite4.next))
(define-fun .def_854 () Bool (or .def_852 .def_853))
(define-fun .def_848 () Bool (= call_mesi.modified_me call_mesi.ite5.next))
(define-fun .def_850 () Bool (or .def_848 param_etat_me4.next))
(define-fun .def_855 () Bool (and .def_850 .def_854))
(define-fun .def_860 () Bool (and .def_855 .def_859))
(define-fun .def_863 () Bool (and .def_860 .def_862))
(define-fun .def_868 () Bool (and .def_863 .def_867))
(define-fun .def_871 () Bool (and .def_868 .def_870))
(define-fun .def_876 () Bool (and .def_871 .def_875))
(define-fun .def_879 () Bool (and .def_876 .def_878))
(define-fun .def_831 () Int (* (- 1) invalid_me.next))
(define-fun .def_828 () Int (* (- 1) shared_me.next))
(define-fun .def_837 () Int (+ .def_828 .def_831))
(define-fun .def_825 () Int (* (- 1) exclusive_me.next))
(define-fun .def_838 () Int (+ .def_825 .def_837))
(define-fun .def_823 () Int (* (- 1) modified_me.next))
(define-fun .def_839 () Int (+ .def_823 .def_838))
(define-fun .def_840 () Int (+ invalid_me .def_839))
(define-fun .def_841 () Int (+ shared_me .def_840))
(define-fun .def_842 () Int (+ exclusive_me .def_841))
(define-fun .def_843 () Int (+ modified_me .def_842))
(define-fun .def_844 () Bool (= .def_843 0))
(define-fun .def_846 () Bool (= .def_844 flby.next))
(define-fun .def_880 () Bool (and .def_846 .def_879))
(define-fun .def_945 () Bool (and .def_880 .def_944))
(define-fun .def_965 () Bool (and .def_945 .def_964))
(define-fun .def_981 () Bool (and .def_965 .def_980))
(define-fun .def_1002 () Bool (and .def_981 .def_1001))
(define-fun .def_1011 () Bool (and .def_1002 .def_1010))
(define-fun .def_1014 () Bool (and .def_1011 .def_1013))
(define-fun .def_1026 () Bool (and .def_1014 .def_1025))
(define-fun .def_1037 () Bool (and .def_1026 .def_1036))
(define-fun .def_1041 () Bool (and .def_1037 .def_1040))
(define-fun .def_1045 () Bool (and .def_1041 .def_1044))
(define-fun .def_1049 () Bool (and .def_1045 .def_1048))
(define-fun .def_1053 () Bool (and .def_1049 .def_1052))
(define-fun .def_1058 () Bool (and .def_1053 .def_1057))
(define-fun .def_1190 () Bool (and .def_1058 .def_1189))
(assert .def_1190)
